NAME          
ROWS
 N  OBJ
 L  c1
 L  c2
COLUMNS
    MARKER    'MARKER'                 'INTORG'
    x[1]      c1        678
    x[1]      c2        218
    x[1]      OBJ       -651
    x[2]      c1        58
    x[2]      c2        163
    x[2]      OBJ       -293
    x[3]      c1        291
    x[3]      c2        158
    x[3]      OBJ       -460
    x[4]      c1        927
    x[4]      c2        995
    x[4]      OBJ       -766
    x[5]      c1        338
    x[5]      c2        737
    x[5]      OBJ       -719
    x[6]      c1        196
    x[6]      c2        563
    x[6]      OBJ       -506
    x[7]      c1        647
    x[7]      c2        383
    x[7]      OBJ       -156
    x[8]      c1        117
    x[8]      c2        241
    x[8]      OBJ       -776
    x[9]      c1        813
    x[9]      c2        274
    x[9]      OBJ       -423
    x[10]     c1        871
    x[10]     c2        545
    x[10]     OBJ       -654
    x[11]     c1        12
    x[11]     c2        886
    x[11]     OBJ       -198
    x[12]     c1        887
    x[12]     c2        367
    x[12]     OBJ       -424
    x[13]     c1        41
    x[13]     c2        233
    x[13]     OBJ       -2
    x[14]     c1        969
    x[14]     c2        232
    x[14]     OBJ       -726
    x[15]     c1        224
    x[15]     c2        599
    x[15]     OBJ       -538
RHS
    rhs       c1        3534
    rhs       c2        3297
RANGES
BOUNDS
 BV bounds    x[1]
 BV bounds    x[2]
 BV bounds    x[3]
 BV bounds    x[4]
 BV bounds    x[5]
 BV bounds    x[6]
 BV bounds    x[7]
 BV bounds    x[8]
 BV bounds    x[9]
 BV bounds    x[10]
 BV bounds    x[11]
 BV bounds    x[12]
 BV bounds    x[13]
 BV bounds    x[14]
 BV bounds    x[15]
ENDATA
